NAME : mr66
COMMENT : 66-city problem (DISC)
TYPE : TSP
DIMENSION : 66
EDGE_WEIGHT_TYPE : EUC_2D
NODE_COORD_SECTION
1 16 33
2 14 52
3 37 51
4 68 32
5 20 91
6 26 28
7 76 82
8 56 56
9 52 65
10 47 71
11 9 42
12 83 90
13 30 7
14 4 67
15 68 32
16 91 71
17 52 78
18 54 42
19 67 9
20 64 24
21 36 76
22 3 47
23 17 21
24 88 70
25 7 91
26 37 6
27 12 79
28 10 40
29 9 82
30 9 57
31 3 40
32 78 70
33 5 59
34 47 55
35 95 1
36 22 56
37 37 56
38 4 30
39 31 22
40 19 13
41 13 65
42 42 47
43 95 80
44 4 2
45 96 87
46 13 38
47 8 76
48 17 87
49 96 25
50 27 50
51 11 82
52 91 83
53 56 59
54 75 23
55 11 47
56 79 27
57 66 67
58 37 61
59 65 28
60 24 34
61 72 63
62 27 42
63 63 21
64 82 60
65 4 53
66 60 92
EOF
